n = 10;

R =
[|0,2,2,0,0,3,0,0,0,0,
 |0,4,0,0,0,3,0,0,0,0,
 |0,4,1,0,0,3,0,0,0,4,
 |0,4,0,0,0,1,1,0,1,4,
 |1,4,0,0,1,0,0,2,0,4,
 |4,1,0,0,0,0,0,2,0,4,
 |4,2,2,0,4,4,4,4,0,0,
 |4,1,0,0,5,5,5,5,5,0,
 |4,0,0,2,2,0,0,1,0,0,
 |0,0,1,0,0,0,0,0,0,0,
 |];

